
Gurobi 11.0.0 (win64, C++) logging started Wed Jul 30 00:57:16 2025

Set parameter TokenServer to value "141.76.38.119"
### START HEURISTIC APPROACH APPROACH ###
ProblemVariant: 1
### START PREPROCESSING ###
## Start start solution procedure ##
Start solution with 8 Vehicles and total costs 880.305 in 12.6109 s.
### END PREPROCESSING ###
Route 0 0-25-24-1-6-0 : weight util 0.388889 | volume util 0.625556 | infeasible with packing heuristic | feasible with CP model
Route 1 0-3-2-5-4-0 : weight util 0.783333 | volume util 0.480111 | infeasible with packing heuristic | feasible with CP model
Route 2 0-29-27-28-26-0 : weight util 0.344444 | volume util 0.581244 | infeasible with packing heuristic | feasible with CP model
Route 3 0-15-7-13-16-0 : weight util 0.222222 | volume util 0.487956 | infeasible with packing heuristic | feasible with CP model
Route 4 0-18-0 : weight util 0.033333 | volume util 0.292667 | infeasible with packing heuristic | feasible with CP model
Route 5 0-22-20-19-0 : weight util 0.177778 | volume util 0.402489 | infeasible with packing heuristic | feasible with CP model
Route 6 0-21-14-9-17-12-0 : weight util 0.483333 | volume util 0.621156 | infeasible with packing heuristic | feasible with CP model
Route 7 0-10-11-8-23-0 : weight util 0.400000 | volume util 0.528578 | infeasible with packing heuristic | feasible with CP model
